NAME : local_11
TYPE : ATSP
DIMENSION : 6
EDGE_WEIGHT_TYPE : EXPLICIT
EDGE_WEIGHT_FORMAT : FULL_MATRIX
EDGE_WEIGHT_SECTION
0 10000000 10000000 631 347 364 
0 0 367 1022 10000000 10000000 
0 367 0 1053 10000000 10000000 
0 1009 1067 0 322 839 
0 10000000 10000000 322 0 582 
0 10000000 10000000 10000000 10000000 0 
EOF